\ This file has been generated by DOcplex
\ ENCODING=ISO-8859-1
\Problem name: CPLEX

Minimize
 obj: - 5 b_0 + 16 b_1 + b_2 + 8 f_0 + 12
Subject To
 lin_eq_0: 16 b_2 <= 16
 lin_eq_1: 9 f_0 <= 387
 lin_eq_2: 3 b_2 <= 3

Bounds
 0 <= b_0 <= 1
 0 <= b_1 <= 1
 0 <= b_2 <= 1
 2 <= f_0 <= 70
 4 <= f_1 <= 55

Binaries
 b_0 b_1 b_2
End
